p cnf 100 40
x -2 3 4 5 6 -8 13 14 15 -18 20 21 24 -25 -26 27 30 -32 -35 -37 38 -41 44 -45 47 49 52 -55 -60 61 62 -64 -65 66 67 68 -72 73 74 -75 76 77 81 -82 -83 -85 88 90 -95 96 97 -99 -100 0
x 1 2 -3 4 6 8 9 12 -14 20 21 22 23 -25 -26 27 -30 31 -32 -34 39 46 47 48 49 51 -53 -55 -58 -59 -60 61 -63 -69 -71 78 -79 80 -81 -82 -87 -88 90 91 -92 -97 99 100 0
x -2 3 -6 14 15 16 -17 19 -20 21 -27 28 29 30 33 35 -38 -41 42 43 -45 47 -49 -52 55 56 60 61 -62 66 69 -73 -75 76 -78 79 -80 82 -83 86 88 89 91 96 -99 100 0
x -1 2 7 8 -13 16 -18 -20 22 -23 -28 -30 32 -34 -36 37 38 -40 41 42 -43 47 48 49 50 -51 -53 54 -55 56 -57 -58 -59 60 -61 -62 -63 65 -67 69 -72 -73 76 78 79 81 87 -95 96 -97 98 -99 -100 0
x -2 -4 5 6 9 -10 -11 -13 -16 17 18 19 -20 21 -22 -23 -27 -29 -30 -32 -33 -34 -36 -37 38 -39 -42 -47 48 -49 -51 52 56 -59 61 62 -63 65 -72 73 74 -76 -78 81 -82 -84 -87 88 89 -90 -91 -94 -96 100 0
x -1 -4 5 6 7 8 9 12 -13 -15 16 17 18 20 26 -27 29 -30 32 33 -38 -39 -40 -42 43 47 48 49 51 53 54 57 61 -65 -66 71 72 -74 79 -81 85 -86 -89 -92 93 95 -96 97 -99 -100 0
x 5 8 9 -10 -11 -13 -14 15 16 17 18 20 -22 -23 24 -25 -29 32 33 -38 -39 41 -43 44 -47 -48 -49 -50 51 52 56 60 61 -67 -71 -72 -76 -78 -79 -81 -85 86 -88 89 90 91 -92 93 -96 -98 100 0
x 1 2 3 6 -8 -9 11 13 14 -15 -18 19 -22 24 25 28 -29 -33 37 -38 -40 -41 -42 -43 44 50 -54 -64 -66 -68 69 71 75 76 77 78 -79 80 -83 86 -89 -91 -92 93 -94 96 97 -98 -100 0
x -1 -3 -5 7 10 -12 14 -23 -24 -26 -27 28 32 37 -38 41 44 -45 49 50 54 -56 58 59 -62 -64 -67 -68 70 -71 -72 -76 77 82 -84 85 -86 -88 89 -90 91 93 94 95 -96 -97 -99 0
x -1 -2 3 -5 -6 7 -8 -9 -15 -16 22 -24 25 26 27 -28 29 34 36 -38 42 -43 -48 -51 54 -57 -58 -59 60 -62 67 -69 -70 -71 -72 73 -76 -77 -80 81 84 85 87 -88 -90 92 -93 96 -97 98 0
x -5 -6 8 -10 -11 18 19 20 22 -25 27 29 30 32 33 34 42 -44 45 46 -48 -49 -54 56 59 -63 -64 -65 67 68 -69 70 -71 76 -78 -80 82 83 84 -85 -87 90 -91 -94 99 0
x 1 5 -9 14 15 16 17 -20 24 26 -30 -32 33 -37 -38 -39 43 -45 -46 48 53 55 58 59 -65 -66 -67 68 -69 -70 -71 -72 -75 76 -77 78 79 84 -85 89 91 -92 -95 -96 -99 100 0
x -1 3 -4 5 -6 -8 10 11 -12 15 -18 -20 -21 -22 24 27 -28 -29 30 32 -36 37 -39 40 -42 43 44 -45 48 -50 -51 53 -55 -57 -58 -60 62 -63 67 70 -71 -75 -78 81 82 85 -87 88 91 92 -93 98 100 0
x -1 3 4 5 11 -15 -16 -19 -21 22 23 -25 27 -30 -32 -33 -34 36 -37 -38 43 -44 45 -46 -47 -48 49 53 -54 56 -57 59 62 65 67 -68 -70 -71 72 -73 76 78 -82 84 -85 -86 88 89 -92 -93 95 96 99 0
x -1 4 5 -6 7 -11 14 -16 -19 22 26 -30 31 32 33 34 36 38 40 42 -43 45 -49 -50 -51 55 -62 -65 66 -67 -68 -69 72 76 79 80 -82 86 -87 88 89 92 -94 -99 0
x -1 6 -7 -9 -10 -12 -14 -19 20 23 -24 -26 -27 -28 30 31 36 37 44 -46 50 -52 -55 56 -57 58 59 -60 -61 -62 64 -65 70 -72 73 74 76 78 80 -81 82 84 -85 -87 -88 -89 -90 91 -92 94 95 -99 0
x 1 -2 4 5 7 -11 -13 -16 -17 -24 28 30 32 -34 -35 -37 38 43 -45 48 49 -52 53 -54 55 -56 -57 -58 65 68 70 -72 -76 -77 78 79 -81 -82 -84 -85 86 -88 -89 90 92 93 -95 -97 -98 -99 0
x -3 -4 -7 -9 -13 -17 20 21 -22 24 -26 -28 -30 32 -36 37 38 39 -40 43 45 48 49 -50 -51 -52 -54 59 -60 61 62 -63 -66 -68 -70 -74 76 -77 78 -79 80 -81 85 -86 88 -89 93 -99 -100 0
x -1 -3 6 7 9 11 -15 -16 -18 19 20 -22 26 27 28 29 -30 -35 -37 -39 -40 -41 -45 47 -56 -57 59 -60 -61 64 65 -66 -67 -69 70 71 -74 -75 -77 -78 -79 -81 84 -86 87 88 93 -94 96 100 0
x 2 4 -5 6 7 -8 9 -10 12 15 -16 17 -18 21 -22 23 27 -30 -37 -38 -39 40 43 -49 -50 51 -53 56 57 -61 -66 -71 72 73 74 -75 -77 -80 -84 -88 -90 -91 94 97 100 0
x -1 -2 -3 -5 7 8 9 11 12 -13 -14 21 -26 -27 31 33 -36 39 -41 -46 -49 -52 53 57 -59 -63 68 69 70 73 -74 78 -81 -84 -88 -89 93 95 0
x -1 -4 5 9 11 13 -16 -17 19 20 21 -22 -24 26 -28 -30 32 33 -38 -39 43 -44 -46 48 50 53 -54 -55 -56 58 -59 61 62 -63 64 -67 68 72 -73 -74 -80 -81 83 85 86 87 91 93 95 -97 -98 99 100 0
x 1 3 -4 -7 8 -10 12 -13 16 21 -22 24 -25 29 31 33 -34 -35 -37 38 -40 42 -43 -44 48 -49 -50 -51 52 53 -57 58 61 -62 -68 -71 73 -76 -79 80 -81 -82 -85 -86 -87 88 -89 90 92 -94 -95 97 0
x -2 -3 4 5 -9 -11 13 16 18 20 23 24 -25 26 -28 30 -31 32 33 -34 -35 -38 -40 44 -45 46 49 53 -56 -58 61 64 -65 -66 -69 -70 71 -72 75 76 79 80 81 -83 87 -88 -89 90 93 97 98 99 -100 0
x -1 2 3 8 9 10 11 -13 14 19 20 -21 26 28 31 -32 34 -36 -37 38 -40 -42 -43 47 48 -49 51 -52 -54 55 56 -59 -60 62 -63 -65 66 -67 -68 -69 70 -72 74 75 76 -77 78 79 81 83 -84 89 -94 96 -97 -98 99 100 0
x 2 -3 4 -8 -10 -12 13 -15 -16 -19 20 -22 -23 -24 -25 -33 34 -38 44 46 -48 -49 54 -60 -62 64 66 68 -69 -70 -71 -72 74 -75 -77 78 -79 -81 -84 -86 -87 -88 -91 92 93 -94 -96 99 -100 0
x 1 -5 8 -9 10 -15 -19 -20 23 25 26 -27 28 29 -31 -33 -35 36 37 -38 39 40 41 45 -48 -52 -56 -58 -63 -64 -65 -68 70 -72 81 -83 84 87 88 -96 -99 0
x 2 -6 10 -11 15 16 -19 -20 21 -22 23 -25 -26 -27 -28 -29 33 -37 -39 -41 44 45 -46 47 50 -51 53 57 -60 61 -62 -63 -64 -65 -67 70 -72 -76 77 -82 -84 -86 -87 -90 -92 -93 -94 98 -99 -100 0
x -1 -5 -7 8 -11 22 -25 -27 28 -29 -31 -32 -39 -40 -43 44 -45 47 -48 51 -53 59 -60 -64 -65 -66 69 -70 71 72 -73 75 -79 -80 -81 82 83 -84 -86 87 -91 -94 98 0
x 2 -4 5 6 7 -8 -9 10 14 -15 16 -17 -18 19 20 -21 22 -23 -25 26 -27 -29 31 34 38 -41 -45 46 49 52 54 -56 57 -60 -62 -63 64 65 -70 73 74 77 78 -81 82 86 -87 -88 89 -90 92 93 0
x 1 -3 4 -5 -6 8 10 11 13 14 -16 20 22 24 -26 27 -35 -36 38 -40 41 42 44 -47 -49 50 -51 -52 -53 57 -58 -60 -62 65 -66 69 -70 -71 72 74 -81 -82 -84 87 -90 -91 -96 99 100 0
x 1 3 -4 5 -7 9 12 13 -14 17 19 20 -25 26 29 -30 -31 33 36 -37 38 -41 42 44 -45 -46 -47 48 49 -53 54 55 56 -57 -58 59 -61 65 66 67 69 -72 74 -75 78 -79 80 83 84 88 89 90 92 93 95 -96 -98 99 -100 0
x -3 -7 -8 -14 18 19 21 23 26 -28 -29 30 32 -37 -40 43 47 -49 51 54 -56 -59 63 -64 66 -70 71 -76 77 -79 81 -83 -86 87 -88 89 92 -95 96 0
x -3 6 -8 11 -13 -15 -17 18 -21 22 23 -25 30 34 37 38 42 43 44 45 -46 -50 51 -52 53 -57 58 59 60 -61 -64 69 -70 -71 -74 75 -76 -86 87 -88 90 -93 94 -98 0
x -4 -5 -6 -7 11 -14 -15 16 18 21 22 -24 27 28 -30 -31 32 33 39 40 -41 -43 -44 -45 46 -51 52 55 -57 62 -65 -68 69 -70 72 -73 -74 -75 78 79 80 -85 87 -90 92 -93 -94 96 98 0
x -2 5 -10 -13 18 -19 -27 -28 30 35 -37 38 39 -40 43 -44 49 -50 51 -53 54 -55 -56 -59 60 62 63 64 65 -66 67 -70 -73 -74 -75 76 77 81 87 -88 90 -97 98 99 0
x -1 -3 4 -9 -14 -15 -16 -17 18 19 -20 -23 -24 -25 30 -31 32 33 34 -35 -37 -38 40 44 -45 -46 48 49 -50 52 -53 -55 57 -63 -65 67 75 -76 78 -80 82 83 -85 86 -87 -89 94 95 -98 -99 0
x -2 -3 5 -7 8 10 11 13 -15 -16 17 18 20 -25 27 -28 -32 -37 39 -41 -43 -45 -48 50 51 -53 -54 -57 59 -68 72 -75 79 -82 -85 -86 87 -88 -89 91 92 -94 96 98 -100 0
x 1 -2 4 -6 9 10 -11 -12 -13 -14 15 17 -22 -23 25 -26 27 29 -37 40 41 -45 -46 51 58 -60 67 -71 75 -76 -78 79 -80 -81 85 -86 87 -88 -90 91 -93 -94 95 98 -99 0
x -3 5 6 7 9 -10 12 -13 -14 -15 -17 -18 -19 -20 -21 -23 -26 -28 34 35 -36 -39 -40 41 -43 44 -45 46 -48 -49 -50 51 52 -53 55 61 62 -64 66 -68 -70 71 -73 74 -75 -76 77 -80 81 83 84 -86 -88 -89 -92 -95 98 -99 -100 0
g -40